TYPE : Vertex Cover
DIMENSION: 40
EDGE_DATA_SECTION:
0 1
0 7
0 9
0 31
1 3
1 21
1 23
2 8
2 9
2 20
2 28
2 33
2 38
3 10
3 11
3 19
3 29
3 30
3 37
3 39
4 8
4 29
4 38
5 11
5 14
5 23
5 25
5 29
6 9
6 14
6 15
6 17
6 22
7 13
7 22
7 24
7 33
8 12
8 23
8 24
8 29
8 30
8 37
9 19
9 20
9 24
9 37
10 23
10 26
10 27
10 31
10 34
10 37
10 38
11 12
11 14
11 18
11 32
11 35
12 30
12 33
13 17
13 18
13 21
13 32
14 23
14 25
14 32
14 33
14 34
14 35
15 17
15 18
15 34
16 19
16 21
16 24
16 33
16 34
17 19
17 33
18 20
18 21
18 24
18 25
18 27
19 22
19 26
19 31
20 25
20 32
21 31
22 26
22 28
22 36
23 25
23 32
23 34
24 25
24 28
24 31
24 35
25 36
25 38
26 33
26 37
26 38
27 32
28 30
29 32
29 33
29 36
29 37
30 31
31 36
32 34
32 39
33 39
34 35
-1
VERTEX_DEGREE:
4.0 4.0 6.0 8.0 3.0 5.0 5.0 5.0 8.0 7.0 8.0 7.0 4.0 5.0 9.0 4.0 5.0 5.0 8.0 7.0 5.0 5.0 6.0 8.0 9.0 8.0 6.0 3.0 4.0 8.0 5.0 7.0 9.0 9.0 7.0 4.0 4.0 6.0 5.0 3.0
VERTEX_COVER:
0 2 3 6 8 9 10 11 13 14 17 18 19 21 22 23 24 25 29 30 32 33 34 36 37 38
EOF
